(set-info :smt-lib-version 2.6)
(set-logic UFNIRA)
(set-info :source |
Generated by: Mirek Olšák, Mikoláš Janota, Chad E. Brown
Generated on: 2024-04-14
Application: Mathematics challenges involving function synthesis
Publications: https://arxiv.org/abs/2404.12048
From a collection by: Vít Musil
Source url: https://prase.cz/library/FunkcionalniRovniceVM/FunkcionalniRovniceVM.pdf
Problem number: Úloha 1
|)
(set-info :license "https://creativecommons.org/licenses/by-nc/4.0/")
(set-info :category "crafted")
(set-info :status unsat)

; Header
(declare-fun f (Real) Real)

; Equations
(assert (forall ((x Real) (y Real)) (=> (and (exists ((numerator Int) (denominator Int)) (and (distinct denominator 0) (= (/ (to_real numerator) (to_real denominator)) x))) (exists ((numerator Int) (denominator Int)) (and (distinct denominator 0) (= (/ (to_real numerator) (to_real denominator)) y)))) (= (f (+ x y)) (+ (f x) (f y))))))

; Find all possible f

; Solutions

(assert (not (exists ((c Real)) (forall ((x Real)) (=> (exists ((numerator Int) (denominator Int)) (and (distinct denominator 0) (= (/ (to_real numerator) (to_real denominator)) x))) (= (f x) (* c x)))))))

(check-sat)
(exit)
